* ENCODING=ISO-8859-1
NAME          CPLEX
ROWS
 N  obj1    
 G  c1      
 G  c2      
 G  c3      
 G  c4      
 G  c5      
 G  c6      
 G  c7      
 G  c8      
 G  c9      
 G  c10     
 G  c11     
 G  c12     
 G  c13     
 G  c14     
 G  c15     
 G  c16     
 G  c17     
 G  c18     
 G  c19     
 G  c20     
 G  c21     
 G  c22     
 G  c23     
 G  c24     
 G  c25     
 G  c26     
 G  c27     
 G  c28     
 G  c29     
 G  c30     
 G  c31     
 G  c32     
 G  c33     
 G  c34     
 G  c35     
 G  c36     
 G  c37     
 G  c38     
 G  c39     
 G  c40     
COLUMNS
    MARK0000  'MARKER'                 'INTORG'
    x1        obj1                            1
    x1        c6                            746
    x1        c7                            190
    x1        c13                           364
    x1        c16                           340
    x1        c17                           766
    x1        c23                           794
    x2        obj1                            1
    x2        c15                           662
    x2        c28                           686
    x2        c31                           409
    x2        c33                           622
    x2        c36                           185
    x3        obj1                            1
    x3        c2                            425
    x4        obj1                            1
    x4        c4                            644
    x4        c6                            535
    x4        c34                           911
    x5        obj1                            1
    x5        c4                            190
    x5        c21                           447
    x5        c23                           643
    x5        c28                           212
    x6        obj1                            1
    x6        c11                           627
    x6        c26                           991
    x6        c30                           794
    x7        obj1                            1
    x7        c3                            917
    x7        c16                           867
    x7        c30                           829
    x7        c38                           380
    x8        obj1                            1
    x8        c5                            534
    x8        c6                            310
    x8        c21                           792
    x9        obj1                            1
    x9        c4                            564
    x9        c7                            992
    x9        c13                           766
    x9        c35                           158
    x10       obj1                            1
    x10       c3                            283
    x10       c15                           313
    x10       c22                           167
    x10       c27                           682
    x10       c32                           329
    x11       obj1                            1
    x11       c12                           662
    x11       c29                           648
    x11       c32                           498
    x12       obj1                            1
    x12       c7                            717
    x12       c9                            715
    x12       c19                           135
    x12       c35                           665
    x12       c39                           674
    x13       obj1                            1
    x13       c4                            187
    x13       c8                            369
    x13       c40                           784
    x14       obj1                            1
    x14       c2                            389
    x14       c15                           399
    x14       c29                           238
    x14       c35                           844
    x15       obj1                            1
    x15       c33                           184
    x16       obj1                            1
    x16       c1                            201
    x16       c5                            842
    x16       c13                           199
    x16       c16                           303
    x16       c18                           958
    x16       c31                           296
    x17       obj1                            1
    x17       c1                            937
    x17       c5                            463
    x17       c12                           496
    x17       c18                           637
    x17       c22                           491
    x17       c27                           212
    x17       c37                           392
    x18       obj1                            1
    x18       c14                           478
    x18       c35                           740
    x19       obj1                            1
    x19       c16                           240
    x19       c18                           320
    x19       c25                           649
    x19       c29                           629
    x19       c32                           199
    x19       c37                           645
    x20       obj1                            1
    x20       c3                            327
    x20       c22                           294
    x20       c23                           133
    x20       c31                           786
    x20       c38                           737
    x21       obj1                            1
    x21       c14                           995
    x21       c19                           645
    x21       c22                           917
    x21       c24                           331
    x21       c27                           163
    x22       obj1                            1
    x22       c1                            558
    x22       c5                            119
    x22       c8                            297
    x22       c22                           236
    x22       c34                           905
    x23       obj1                            1
    x23       c4                            178
    x23       c10                           884
    x23       c18                           377
    x24       obj1                            1
    x25       obj1                            1
    x25       c6                            179
    x25       c37                           725
    x26       obj1                            1
    x26       c11                           772
    x26       c13                           204
    x26       c25                           692
    x27       obj1                            1
    x27       c11                           948
    x27       c14                           210
    x27       c15                           861
    x27       c19                           140
    x27       c32                           277
    x27       c33                           193
    x27       c38                           933
    x28       obj1                            1
    x28       c11                           904
    x28       c17                           997
    x28       c35                           370
    x29       obj1                            1
    x29       c8                            624
    x29       c25                           177
    x30       obj1                            1
    x30       c17                           776
    x30       c29                           460
    x30       c37                           570
    x30       c38                           246
    x30       c39                           260
    x31       obj1                            1
    x31       c1                            630
    x31       c10                           647
    x31       c14                           557
    x31       c19                           557
    x32       obj1                            1
    x32       c2                            166
    x32       c30                           589
    x32       c36                           891
    x32       c38                           266
    x33       obj1                            1
    x33       c2                            866
    x33       c9                            414
    x33       c24                           377
    x34       obj1                            1
    x34       c4                            401
    x34       c16                           675
    x34       c17                           918
    x34       c22                           139
    x34       c29                           560
    x34       c31                           221
    x34       c32                           728
    x35       obj1                            1
    x35       c10                           894
    x35       c15                           141
    x35       c21                           451
    x35       c27                           408
    x35       c31                           498
    x35       c38                           188
    x36       obj1                            1
    x36       c4                            258
    x36       c23                           276
    x36       c38                           512
    x37       obj1                            1
    x37       c3                            689
    x37       c10                           648
    x37       c27                           882
    x37       c33                           156
    x37       c34                           315
    x37       c35                           255
    x38       obj1                            1
    x38       c11                           933
    x38       c31                           872
    x39       obj1                            1
    x39       c3                            566
    x39       c12                           698
    x39       c21                           886
    x39       c34                           420
    x40       obj1                            1
    x40       c18                           894
    x40       c28                           331
    x41       obj1                            1
    x41       c5                            212
    x41       c16                           989
    x41       c19                           742
    x41       c36                           109
    x42       obj1                            1
    x43       obj1                            1
    x43       c8                            897
    x43       c34                           138
    x43       c35                           240
    x43       c36                           302
    x44       obj1                            1
    x44       c2                            797
    x44       c9                            968
    x44       c27                           109
    x44       c29                           279
    x44       c32                           451
    x45       obj1                            1
    x45       c6                            331
    x45       c38                           168
    x46       obj1                            1
    x46       c18                           484
    x46       c21                           955
    x46       c26                           721
    x46       c37                           555
    x47       obj1                            1
    x47       c4                            980
    x47       c17                           886
    x47       c18                           770
    x47       c33                           550
    x47       c39                           149
    x48       obj1                            1
    x48       c23                           545
    x48       c24                           361
    x48       c27                           820
    x49       obj1                            1
    x49       c23                           798
    x49       c29                           198
    x49       c34                           931
    x50       obj1                            1
    x50       c1                            819
    x50       c12                           434
    x50       c21                           449
    x50       c33                           208
    x51       obj1                            1
    x51       c1                            471
    x51       c3                            823
    x51       c22                           167
    x51       c26                           684
    x52       obj1                            1
    x52       c3                            119
    x52       c8                            615
    x52       c21                           867
    x52       c22                           927
    x52       c23                           618
    x52       c39                           371
    x53       obj1                            1
    x53       c8                            460
    x53       c10                           185
    x53       c14                           504
    x53       c16                           298
    x53       c25                           106
    x54       obj1                            1
    x54       c4                            467
    x54       c6                            153
    x54       c17                           909
    x54       c20                           235
    x55       obj1                            1
    x55       c1                            982
    x55       c2                            203
    x55       c4                            993
    x55       c8                            188
    x55       c13                           130
    x55       c16                           525
    x55       c18                           222
    x55       c24                           697
    x56       obj1                            1
    x56       c39                           174
    x57       obj1                            1
    x57       c6                            693
    x57       c13                           298
    x57       c22                           781
    x57       c38                           241
    x58       obj1                            1
    x58       c2                            922
    x58       c3                            256
    x58       c15                           894
    x58       c33                           332
    x59       obj1                            1
    x59       c6                            430
    x59       c24                           374
    x59       c37                           592
    x60       obj1                            1
    x60       c9                            237
    x60       c13                           220
    x60       c17                           390
    x60       c24                           451
    x60       c39                           850
    x61       obj1                            1
    x61       c8                            697
    x61       c16                           568
    x61       c20                           759
    x62       obj1                            1
    x62       c6                            289
    x62       c18                           514
    x62       c30                           512
    x63       obj1                            1
    x63       c1                            890
    x63       c8                            894
    x63       c13                           930
    x63       c18                           161
    x63       c31                           376
    x63       c32                           499
    x63       c33                           214
    x63       c34                           446
    x64       obj1                            1
    x64       c14                           346
    x64       c23                           101
    x64       c24                           709
    x64       c37                           912
    x65       obj1                            1
    x65       c9                            749
    x65       c34                           769
    x65       c38                           452
    x65       c40                           260
    x66       obj1                            1
    x66       c10                           312
    x66       c24                           532
    x66       c34                           727
    x67       obj1                            1
    x67       c2                            259
    x67       c5                            396
    x67       c9                            557
    x67       c20                           687
    x68       obj1                            1
    x68       c8                            729
    x68       c20                           642
    x68       c30                           110
    x68       c34                           603
    x69       obj1                            1
    x69       c9                            416
    x69       c27                           920
    x69       c31                           760
    x69       c36                           190
    x70       obj1                            1
    x70       c29                           119
    x70       c33                           605
    x70       c38                           435
    x71       obj1                            1
    x71       c4                            151
    x71       c34                           162
    x72       obj1                            1
    x72       c1                            367
    x72       c31                           883
    x72       c35                           655
    x73       obj1                            1
    x73       c18                           961
    x73       c22                           969
    x73       c29                           389
    x73       c37                           176
    x74       obj1                            1
    x74       c5                            384
    x74       c17                           811
    x74       c20                           626
    x74       c22                           694
    x74       c30                           386
    x74       c40                           147
    x75       obj1                            1
    x75       c9                            695
    x75       c21                           266
    x75       c23                           941
    x76       obj1                            1
    x76       c2                            352
    x76       c23                           993
    x76       c24                           403
    x77       obj1                            1
    x77       c6                            979
    x77       c7                            252
    x77       c15                           448
    x77       c19                           756
    x77       c26                           876
    x77       c39                           624
    x78       obj1                            1
    x78       c13                           485
    x78       c16                           293
    x78       c28                           815
    x78       c29                           317
    x78       c38                           881
    x79       obj1                            1
    x79       c23                           373
    x80       obj1                            1
    x80       c15                           123
    x80       c26                           622
    x80       c29                           573
    x80       c37                           986
    x80       c40                           126
    MARK0001  'MARKER'                 'INTEND'
RHS
    rhs       c1                           2928
    rhs       c2                           2190
    rhs       c3                           1990
    rhs       c4                           2507
    rhs       c5                           1475
    rhs       c6                           2323
    rhs       c7                           1076
    rhs       c8                           2885
    rhs       c9                           2376
    rhs       c10                          1785
    rhs       c11                          2092
    rhs       c12                          1145
    rhs       c13                          1798
    rhs       c14                          1545
    rhs       c15                          1921
    rhs       c16                          2549
    rhs       c17                          3227
    rhs       c18                          3149
    rhs       c19                          1488
    rhs       c20                          1475
    rhs       c21                          2557
    rhs       c22                          2891
    rhs       c23                          3108
    rhs       c24                          2118
    rhs       c25                           812
    rhs       c26                          1947
    rhs       c27                          2098
    rhs       c28                          1022
    rhs       c29                          2205
    rhs       c30                          1610
    rhs       c31                          2551
    rhs       c32                          1491
    rhs       c33                          1532
    rhs       c34                          3164
    rhs       c35                          1964
    rhs       c36                           839
    rhs       c37                          2777
    rhs       c38                          2720
    rhs       c39                          1551
    rhs       c40                           659
BOUNDS
 LI bnd       x1        0
 LI bnd       x2        0
 LI bnd       x3        0
 LI bnd       x4        0
 LI bnd       x5        0
 LI bnd       x6        0
 LI bnd       x7        0
 LI bnd       x8        0
 LI bnd       x9        0
 LI bnd       x10       0
 LI bnd       x11       0
 LI bnd       x12       0
 LI bnd       x13       0
 LI bnd       x14       0
 LI bnd       x15       0
 LI bnd       x16       0
 LI bnd       x17       0
 LI bnd       x18       0
 LI bnd       x19       0
 LI bnd       x20       0
 LI bnd       x21       0
 LI bnd       x22       0
 LI bnd       x23       0
 LI bnd       x24       0
 LI bnd       x25       0
 LI bnd       x26       0
 LI bnd       x27       0
 LI bnd       x28       0
 LI bnd       x29       0
 LI bnd       x30       0
 LI bnd       x31       0
 LI bnd       x32       0
 LI bnd       x33       0
 LI bnd       x34       0
 LI bnd       x35       0
 LI bnd       x36       0
 LI bnd       x37       0
 LI bnd       x38       0
 LI bnd       x39       0
 LI bnd       x40       0
 LI bnd       x41       0
 LI bnd       x42       0
 LI bnd       x43       0
 LI bnd       x44       0
 LI bnd       x45       0
 LI bnd       x46       0
 LI bnd       x47       0
 LI bnd       x48       0
 LI bnd       x49       0
 LI bnd       x50       0
 LI bnd       x51       0
 LI bnd       x52       0
 LI bnd       x53       0
 LI bnd       x54       0
 LI bnd       x55       0
 LI bnd       x56       0
 LI bnd       x57       0
 LI bnd       x58       0
 LI bnd       x59       0
 LI bnd       x60       0
 LI bnd       x61       0
 LI bnd       x62       0
 LI bnd       x63       0
 LI bnd       x64       0
 LI bnd       x65       0
 LI bnd       x66       0
 LI bnd       x67       0
 LI bnd       x68       0
 LI bnd       x69       0
 LI bnd       x70       0
 LI bnd       x71       0
 LI bnd       x72       0
 LI bnd       x73       0
 LI bnd       x74       0
 LI bnd       x75       0
 LI bnd       x76       0
 LI bnd       x77       0
 LI bnd       x78       0
 LI bnd       x79       0
 LI bnd       x80       0
ENDATA
